
Gurobi 12.0.3 (linux64) logging started Fri Jan  2 04:14:16 2026

Set parameter LogFile to value "/home/bazzo/Scrivania/fjsp_rescheduling/simulations/logs/EX15/gurobi_exp15.log"
Set parameter OutputFlag to value 1
Set parameter TimeLimit to value 2160
Set parameter Presolve to value 2
Set parameter MIPFocus to value 3
Set parameter Heuristics to value 0.1
Set parameter ImproveStartGap to value 0.5
Set parameter Presolve to value 2
Gurobi Optimizer version 12.0.3 build v12.0.3rc0 (linux64 - "Ubuntu 22.04.5 LTS")

CPU model: Intel(R) Xeon(R) W-2145 CPU @ 3.70GHz, instruction set [SSE2|AVX|AVX2|AVX512]
Thread count: 8 physical cores, 16 logical processors, using up to 16 threads

Non-default parameters:
TimeLimit  2160
Heuristics  0.1
MIPFocus  3
Presolve  2
ImproveStartGap  0.5

Optimize a model with 11987 rows, 1297 columns and 58646 nonzeros
Model fingerprint: 0x5fc830cc
Model has 10 quadratic constraints
Variable types: 10 continuous, 1287 integer (1218 binary)
Coefficient statistics:
  Matrix range     [1e+00, 5e+02]
  QMatrix range    [1e+00, 1e+00]
  QLMatrix range   [1e+00, 1e+00]
  Objective range  [1e+00, 1e+00]
  Bounds range     [1e+00, 1e+00]
  RHS range        [1e+00, 1e+03]
Presolve removed 561 rows and 262 columns
Presolve time: 0.07s
Presolved: 11426 rows, 1035 columns, 53962 nonzeros
Presolved model has 10 quadratic constraint(s)
Variable types: 10 continuous, 1025 integer (986 binary)
Root relaxation presolve removed 821 rows and 20 columns
Root relaxation presolved: 10605 rows, 1827 columns, 52276 nonzeros


Root relaxation: objective 1.000000e+00, 128 iterations, 0.04 seconds (0.06 work units)

    Nodes    |    Current Node    |     Objective Bounds      |     Work
 Expl Unexpl |  Obj  Depth IntInf | Incumbent    BestBd   Gap | It/Node Time

H    0     0                    801287.00000    1.00000   100%     -    0s
*    0     0               0    801287.00000    1.00000   100%     -    0s
     0     0    1.00000    0   47 801287.000    1.00000   100%     -    0s
H    0     0                    60628.000000    1.00000   100%     -    0s
H    0     0                    48873.000000    1.00000   100%     -    0s
H    0     0                    4268.0000000    1.00000   100%     -    0s
H    0     0                    3848.0000000    1.00000   100%     -    0s
H    0     0                    3704.0000000    1.00000   100%     -    0s
     0     0    1.00000    0   13 3704.00000    1.00000   100%     -    0s
H    0     0                    3601.0000000    1.00000   100%     -    0s
H    0     0                    3523.0000000    1.00000   100%     -    0s
H    0     0                     643.0000000    1.00000   100%     -    0s
H    0     0                     587.0000000    1.00000   100%     -    1s
     0     0    1.00000    0    9  587.00000    1.00000   100%     -    1s
H    0     0                     335.0000000    1.00000   100%     -    1s
H    0     0                     275.0000000    1.00000   100%     -    1s
     0     0    1.00000    0   12  275.00000    1.00000   100%     -    1s
H    0     0                     121.0000000    1.00000  99.2%     -    2s
H    0     0                      57.0000000    1.00000  98.2%     -    2s
     0     0    1.87500    0   15   57.00000    1.87500  96.7%     -    2s
     0     0    2.00000    0   17   57.00000    2.00000  96.5%     -    2s
H    0     0                      55.0000000    2.00000  96.4%     -    3s
H    0     0                      46.0000000    2.00000  95.7%     -    3s
     0     0    2.00000    0    4   46.00000    2.00000  95.7%     -    3s
     0     0    2.00000    0   21   46.00000    2.00000  95.7%     -    3s
     0     0    2.00000    0   10   46.00000    2.00000  95.7%     -    3s
     0     0    2.00000    0   29   46.00000    2.00000  95.7%     -    3s
     0     0    2.00000    0   16   46.00000    2.00000  95.7%     -    4s
     0     0    2.00000    0   19   46.00000    2.00000  95.7%     -    5s
     0     0    2.00000    0   21   46.00000    2.00000  95.7%     -    5s
     0     0    2.00000    0   23   46.00000    2.00000  95.7%     -    5s
H    0     0                      43.0000000    2.00000  95.3%     -    6s
     0     0    2.00000    0   24   43.00000    2.00000  95.3%     -    7s
H    0     0                      24.0000000    2.00000  91.7%     -    7s
     0     0    2.00000    0   22   24.00000    2.00000  91.7%     -    8s
     0     0    2.00000    0   26   24.00000    2.00000  91.7%     -    8s
     0     0    2.00698    0   36   24.00000    2.00698  91.6%     -    9s
     0     0    2.12555    0   25   24.00000    2.12555  91.1%     -    9s
H    0     0                      21.0000000    2.12927  89.9%     -   10s
     0     0    2.25000    0   33   21.00000    2.25000  89.3%     -   11s
     0     0    2.33333    0   43   21.00000    2.33333  88.9%     -   11s
     0     0    2.50000    0   30   21.00000    2.50000  88.1%     -   12s
     0     0    2.50000    0   22   21.00000    2.50000  88.1%     -   12s
     0     0    2.57143    0   14   21.00000    2.57143  87.8%     -   12s
     0     0    2.71818    0   25   21.00000    2.71818  87.1%     -   13s
     0     0    2.82500    0   18   21.00000    2.82500  86.5%     -   13s
     0     0    2.82500    0   18   21.00000    2.82500  86.5%     -   13s
     0     0    2.82500    0   27   21.00000    2.82500  86.5%     -   14s
     0     0    2.82500    0   18   21.00000    2.82500  86.5%     -   14s
     0     0    2.82500    0   33   21.00000    2.82500  86.5%     -   14s
     0     0    2.82500    0   11   21.00000    2.82500  86.5%     -   15s
     0     0    2.82500    0   14   21.00000    2.82500  86.5%     -   15s
     0     0    3.00000    0   16   21.00000    3.00000  85.7%     -   15s
     0     0    3.00000    0   15   21.00000    3.00000  85.7%     -   15s
     0     0    3.00000    0   40   21.00000    3.00000  85.7%     -   16s
     0     0    3.00000    0   30   21.00000    3.00000  85.7%     -   16s
     0     0    3.00000    0   35   21.00000    3.00000  85.7%     -   17s
     0     0    3.00000    0   41   21.00000    3.00000  85.7%     -   17s
     0     0    3.42105    0   29   21.00000    3.42105  83.7%     -   17s
     0     0    3.44444    0   40   21.00000    3.44444  83.6%     -   17s
     0     0    3.73333    0   42   21.00000    3.73333  82.2%     -   18s
     0     0    3.75000    0   71   21.00000    3.75000  82.1%     -   18s
     0     0    4.00000    0   32   21.00000    4.00000  81.0%     -   19s
     0     0    4.00000    0   41   21.00000    4.00000  81.0%     -   19s
     0     0    4.00000    0   13   21.00000    4.00000  81.0%     -   19s
     0     0    4.00000    0   38   21.00000    4.00000  81.0%     -   19s
     0     0    4.00000    0   17   21.00000    4.00000  81.0%     -   19s
     0     0    4.00000    0   33   21.00000    4.00000  81.0%     -   19s
     0     0    4.00000    0   24   21.00000    4.00000  81.0%     -   20s
     0     0    4.00000    0   22   21.00000    4.00000  81.0%     -   20s
     0     2    4.00000    0   18   21.00000    4.00000  81.0%     -   20s
   471   434   10.50000   19   50   21.00000    4.34707  79.3%  85.7   25s
   477   438    4.65789   14   43   21.00000    4.34707  79.3%  84.6   30s
   519   478    5.21769   16   41   21.00000    5.21769  75.2%  89.7   35s
H  565   475                      20.0000000    5.21769  73.9%  89.9   35s
H 1161   781                      18.0000000    6.58120  63.4%  74.6   37s
H 1253   812                      17.0000000    6.93525  59.2%  73.4   37s

Resetting heuristic parameters to focus on improving solution
(using Heuristics=0.5 and RINS=10)...

  1982  1253     cutoff   28        17.00000    8.66667  49.0%  70.4   38s
  2404  1567   12.00000   31   31   17.00000    9.00000  47.1%  68.8   40s
  4461  2831     cutoff   29        17.00000   11.00000  35.3%  59.3   45s
  6787  3537 infeasible   21        17.00000   12.46667  26.7%  55.1   50s
  9393  4113 infeasible   36        17.00000   13.33333  21.6%  50.7   55s
 11680  4020   14.94444   27   34   17.00000   14.10084  17.1%  49.1   60s
 14924  2918     cutoff   29        17.00000   15.04000  11.5%  45.8   65s
 18457   830     cutoff   30        17.00000   16.36129  3.76%  41.8   70s

Cutting planes:
  Learned: 67
  Gomory: 183
  Lift-and-project: 126
  Cover: 221
  Implied bound: 9
  Projected implied bound: 4
  MIR: 514
  Mixing: 25
  StrongCG: 427
  Flow cover: 1830
  GUB cover: 10
  Inf proof: 55
  Zero half: 1107
  Mod-K: 1
  RLT: 223
  Relax-and-lift: 243

Explored 19518 nodes (798400 simplex iterations) in 71.58 seconds (85.27 work units)
Thread count was 16 (of 16 available processors)

Solution count 10: 17 18 20 ... 43

Optimal solution found (tolerance 1.00e-04)
Best objective 1.700000000000e+01, best bound 1.699999928755e+01, gap 0.0000%

User-callback calls 63102, time in user-callback 0.20 sec
Set parameter TimeLimit to value 1080
Gurobi Optimizer version 12.0.3 build v12.0.3rc0 (linux64 - "Ubuntu 22.04.5 LTS")

CPU model: Intel(R) Xeon(R) W-2145 CPU @ 3.70GHz, instruction set [SSE2|AVX|AVX2|AVX512]
Thread count: 8 physical cores, 16 logical processors, using up to 16 threads

Non-default parameters:
TimeLimit  1080
Heuristics  0.1
MIPFocus  3
Presolve  2
ImproveStartGap  0.5

Optimize a model with 11988 rows, 1297 columns and 58656 nonzeros
Model fingerprint: 0x59913e73
Model has 10 quadratic constraints
Variable types: 10 continuous, 1287 integer (1218 binary)
Coefficient statistics:
  Matrix range     [1e+00, 5e+02]
  QMatrix range    [1e+00, 1e+00]
  QLMatrix range   [1e+00, 1e+00]
  Objective range  [5e-01, 5e-01]
  Bounds range     [1e+00, 1e+00]
  RHS range        [1e+00, 1e+03]

MIP start from previous solve produced solution with objective 101.5 (0.01s)
Loaded MIP start from previous solve with objective 101.5

Presolve removed 7745 rows and 392 columns
Presolve time: 0.17s
Presolved: 4243 rows, 905 columns, 27109 nonzeros
Presolved model has 10 quadratic constraint(s)
Found heuristic solution: objective 10.0000000
Variable types: 10 continuous, 895 integer (856 binary)
Root relaxation presolve removed 1 rows and 19 columns
Root relaxation presolved: 4242 rows, 886 columns, 27090 nonzeros


Root relaxation: objective 5.000000e+00, 71 iterations, 0.01 seconds (0.01 work units)

    Nodes    |    Current Node    |     Objective Bounds      |     Work
 Expl Unexpl |  Obj  Depth IntInf | Incumbent    BestBd   Gap | It/Node Time

     0     0    5.00000    0    7   10.00000    5.00000  50.0%     -    0s
     0     0    5.01032    0   23   10.00000    5.01032  49.9%     -    0s

Resetting heuristic parameters to focus on improving solution
(using Heuristics=0.5 and RINS=10)...

     0     0    5.01032    0   12   10.00000    5.01032  49.9%     -    0s
     0     0    5.01032    0   25   10.00000    5.01032  49.9%     -    0s
     0     0    6.00000    0    8   10.00000    6.00000  40.0%     -    1s
     0     2    6.00000    0    8   10.00000    6.00000  40.0%     -    1s
     1     4    6.00000    1   10   10.00000    6.00000  40.0%  21.0    1s
   591   400    7.00000   11   43   10.00000    7.00000  30.0%  35.2    5s
   601   406    7.00000   16   22   10.00000    7.00000  30.0%  34.6   10s
  2631  1107    8.25238   34   26   10.00000    8.00000  20.0%  50.6   15s
  7128  1994 infeasible   34        10.00000    8.00000  20.0%  51.6   20s

Cutting planes:
  Learned: 26
  Gomory: 50
  Lift-and-project: 40
  Cover: 87
  Implied bound: 3
  Clique: 1
  MIR: 130
  Mixing: 6
  StrongCG: 58
  Flow cover: 623
  GUB cover: 3
  Inf proof: 17
  Zero half: 150
  RLT: 79
  Relax-and-lift: 21
  BQP: 1

Explored 10080 nodes (482202 simplex iterations) in 22.10 seconds (28.13 work units)
Thread count was 16 (of 16 available processors)

Solution count 3: 10 10 101.5 

Optimal solution found (tolerance 1.00e-04)
Best objective 1.000000000000e+01, best bound 1.000000000000e+01, gap 0.0000%

User-callback calls 29157, time in user-callback 0.07 sec
Set parameter TimeLimit to value 360
Gurobi Optimizer version 12.0.3 build v12.0.3rc0 (linux64 - "Ubuntu 22.04.5 LTS")

CPU model: Intel(R) Xeon(R) W-2145 CPU @ 3.70GHz, instruction set [SSE2|AVX|AVX2|AVX512]
Thread count: 8 physical cores, 16 logical processors, using up to 16 threads

Non-default parameters:
TimeLimit  360
Heuristics  0.1
MIPFocus  3
Presolve  2
ImproveStartGap  0.5

Optimize a model with 11990 rows, 1297 columns and 58869 nonzeros
Model fingerprint: 0x9a54fae7
Model has 10 quadratic constraints
Variable types: 10 continuous, 1287 integer (1218 binary)
Coefficient statistics:
  Matrix range     [5e-01, 5e+02]
  QMatrix range    [1e+00, 1e+00]
  QLMatrix range   [1e+00, 1e+00]
  Objective range  [1e+00, 1e+00]
  Bounds range     [1e+00, 1e+00]
  RHS range        [1e+00, 1e+03]

MIP start from previous solve produced solution with objective 13 (0.01s)
Loaded MIP start from previous solve with objective 13

Presolve removed 8341 rows and 446 columns
Presolve time: 0.16s
Presolved: 3649 rows, 851 columns, 22630 nonzeros
Presolved model has 10 quadratic constraint(s)
Variable types: 10 continuous, 841 integer (802 binary)

Resetting heuristic parameters to focus on improving solution
(using Heuristics=0.5 and RINS=10)...

Root relaxation presolve removed 624 rows and 166 columns
Root relaxation presolved: 3025 rows, 685 columns, 18813 nonzeros


Root relaxation: objective 1.200000e+01, 77 iterations, 0.02 seconds (0.02 work units)

    Nodes    |    Current Node    |     Objective Bounds      |     Work
 Expl Unexpl |  Obj  Depth IntInf | Incumbent    BestBd   Gap | It/Node Time

     0     0   12.00000    0   15   13.00000   12.00000  7.69%     -    0s
     0     0   12.00000    0   13   13.00000   12.00000  7.69%     -    0s
     0     2   12.00000    0   13   13.00000   12.00000  7.69%     -    0s

Cutting planes:
  Learned: 6
  Gomory: 19
  Lift-and-project: 12
  Cover: 22
  Projected implied bound: 2
  MIR: 8
  StrongCG: 4
  Flow cover: 40
  GUB cover: 6
  Zero half: 19
  RLT: 3
  Relax-and-lift: 2

Explored 12 nodes (1844 simplex iterations) in 1.64 seconds (1.64 work units)
Thread count was 16 (of 16 available processors)

Solution count 1: 13 

Optimal solution found (tolerance 1.00e-04)
Best objective 1.300000000000e+01, best bound 1.300000000000e+01, gap 0.0000%

User-callback calls 1980, time in user-callback 0.00 sec
